c FILE /home/rafael/Documents/HappySet/MIHS/inputs/happygen/output/graph_scale_free_k3_p0.2_v50_20241127_082409.txt
c SOURCE This is a scale-free graph formed for the happy graph colouring problem.
c DESCRIPTION It was generated using the problem generator of Rhyd Lewis
c
c GRAPH STATS
c Seed                             = 1977633062
c Number of Nodes                  = 50
c Number of colours k              = 3
c Number of pre-assignments        = 10
c Number of links per new node     = 5
c Density                          = 0.191837
c 
c The degrees of nodes 1 to 50, respectively, are as follows 
c [24, 22, 20, 20, 18, 17, 16, 15, 14, 14, 12, 12, 12, 12, 11, 10, 9, 9, 9, 9, 8, 8, 8, 8, 8, 7, 
c  7, 7, 7, 7, 6, 6, 6, 6, 6, 6, 6, 6, 6, 6, 5, 5, 5, 5, 5, 5, 5, 5, 5, 5] 
c  
p edge 50 235 3
e 1 2
e 1 3
e 1 4
e 1 7
e 1 8
e 1 10
e 1 11
e 1 12
e 1 18
e 1 21
e 1 22
e 1 23
e 1 25
e 1 26
e 1 27
e 1 28
e 1 31
e 1 33
e 1 36
e 1 38
e 1 40
e 1 46
e 1 47
e 1 50
e 2 3
e 2 4
e 2 5
e 2 7
e 2 8
e 2 9
e 2 10
e 2 11
e 2 12
e 2 13
e 2 14
e 2 17
e 2 18
e 2 23
e 2 24
e 2 26
e 2 29
e 2 30
e 2 31
e 2 32
e 2 42
e 3 4
e 3 5
e 3 6
e 3 7
e 3 8
e 3 9
e 3 11
e 3 12
e 3 14
e 3 17
e 3 18
e 3 22
e 3 27
e 3 28
e 3 33
e 3 35
e 3 36
e 3 43
e 4 7
e 4 8
e 4 10
e 4 11
e 4 12
e 4 13
e 4 14
e 4 16
e 4 17
e 4 18
e 4 19
e 4 21
e 4 26
e 4 28
e 4 34
e 4 48
e 4 50
e 5 6
e 5 8
e 5 11
e 5 12
e 5 14
e 5 16
e 5 19
e 5 20
e 5 25
e 5 32
e 5 34
e 5 35
e 5 37
e 5 40
e 5 43
e 5 49
e 6 7
e 6 8
e 6 13
e 6 15
e 6 16
e 6 21
e 6 22
e 6 24
e 6 29
e 6 30
e 6 38
e 6 39
e 6 45
e 6 46
e 6 47
e 7 8
e 7 9
e 7 11
e 7 12
e 7 15
e 7 16
e 7 20
e 7 26
e 7 27
e 7 30
e 7 43
e 8 9
e 8 17
e 8 21
e 8 25
e 8 32
e 8 41
e 8 45
e 8 47
e 9 11
e 9 13
e 9 15
e 9 16
e 9 20
e 9 21
e 9 23
e 9 30
e 9 35
e 9 41
e 10 16
e 10 22
e 10 24
e 10 29
e 10 32
e 10 33
e 10 34
e 10 35
e 10 38
e 10 42
e 10 45
e 11 15
e 11 17
e 11 18
e 11 31
e 11 42
e 12 13
e 12 21
e 12 22
e 12 23
e 12 28
e 12 31
e 13 22
e 13 26
e 13 33
e 13 39
e 13 41
e 13 44
e 13 45
e 14 17
e 14 23
e 14 24
e 14 25
e 14 28
e 14 36
e 14 42
e 14 50
e 15 17
e 15 25
e 15 27
e 15 43
e 15 44
e 15 47
e 15 50
e 16 29
e 16 32
e 16 36
e 16 48
e 17 19
e 17 36
e 18 20
e 18 29
e 18 30
e 18 31
e 19 24
e 19 28
e 19 34
e 19 39
e 19 40
e 19 44
e 20 22
e 20 38
e 20 45
e 20 49
e 20 50
e 21 41
e 21 49
e 22 41
e 23 39
e 23 42
e 23 44
e 24 27
e 24 34
e 24 39
e 25 35
e 25 44
e 25 47
e 26 27
e 26 46
e 27 43
e 28 38
e 29 46
e 29 48
e 30 37
e 30 46
e 31 37
e 32 33
e 33 37
e 34 49
e 35 48
e 36 37
e 37 40
e 38 40
e 39 48
e 40 49
n 11 2
n 12 1
n 14 2
n 15 2
n 19 3
n 21 1
n 22 1
n 35 2
n 45 3
n 50 2
